# The first line is called the simple input and is where
# you can put many of the ORCA input arguments
! B3LYP def2-TZVP Opt Freq NormalPrint xyzfile 

# This line tells ORCA to parallelize over 4 CPU cores
%pal nprocs 4 end 

# Here we specify the charge, spin, and coordinates
# Example coordinates are shown for an H2 molecule
*xyz 0 1
N 0.0 0.0 0.0
N 1.103764945364 0.0 0.0
*
